% Logging successfully configured
%%%mzn-stat: initTime=0.014627
%%%mzn-stat: objective=513
%%%mzn-stat: nodes=81
%%%mzn-stat: restarts=0
%%%mzn-stat: peakDepth=80
%%%mzn-stat: solveTime=0.000639446
%%%mzn-stat: variables=210
%%%mzn-stat: propagators=130
%%%mzn-stat: failures=1
%%%mzn-stat: propagations=479
%%%mzn-stat: nogoods=1
%%%mzn-stat: numAtomicConstraintsPropagated=0
%%%mzn-stat: circuitNumber1PropagationsTotal=26
%%%mzn-stat: circuitNumber1CircuitConflicts=1
%%%mzn-stat: circuitNumber1AlldiffConflicts=0
%%%mzn-stat: circuitNumber1TotalFixedEdgesAtConflict=16
%%%mzn-stat: circuitNumber1NumberOfConflicts=1
%%%mzn-stat: circuitNumber1GacPrunings=49
%%%mzn-stat: circuitNumber1PropagationsThatGacPruned=11
%%%mzn-stat: circuitNumber1TotalPruningHallSetSize=118
%%%mzn-stat: circuitNumber1NumberOfPruningExplanations=49
%%%mzn-stat: circuitNumber1MaxPruningHallSetSize=8
%%%mzn-stat: circuitNumber1TotalSccSizeAtPruning=37
%%%mzn-stat: circuitNumber1NumberOfSccPruningCalls=11
%%%mzn-stat: circuitNumber1TotalVarsInvolvedInPruning=41
%%%mzn-stat: circuitNumber1MaxValuesPrunedFromSingleVar=2
%%%mzn-stat: circuitNumber1HallCircuitChecks=22
%%%mzn-stat: circuitNumber1HallCircuitPrunings=2
%%%mzn-stat: circuitNumber1CircuitPreventPrunings=9
%%%mzn-stat: AverageConflictSize=5
%%%mzn-stat: NumUnitNogoodsLearned=0
%%%mzn-stat: AverageLearnedNogoodLength=12
%%%mzn-stat: AverageBacktrackAmount=0
%%%mzn-stat: AverageLbd=8
%%%mzn-stat: 2AutonomousSearchNumBackupCalled=70
%%%mzn-stat: 2AutonomousSearchNumPredicatesRemoved=0
%%%mzn-stat: 2AutonomousSearchNumCalls=71
%%%mzn-stat: 2AutonomousSearchNumPredicatesAdded=39
%%%mzn-stat: 2AutonomousSearchAverageSizeOfHeap=0.5492957746478874
%%%mzn-stat: 2AutonomousSearchNumAssignedPredicatesEncountered=39
%%%mzn-stat-end
maxleg = 513;
succ = array1d(1..20,[3, 11, 4, 5, 15, 9, 1, 7, 10, 17, 20, 13, 19, 16, 2, 18, 8, 6, 14, 12]);
% time elapsed: 14.76 s
----------
%%%mzn-stat: initTime=0.014627
%%%mzn-stat: objective=459
%%%mzn-stat: nodes=159
%%%mzn-stat: restarts=0
%%%mzn-stat: peakDepth=80
%%%mzn-stat: solveTime=0.002087274
%%%mzn-stat: variables=210
%%%mzn-stat: propagators=130
%%%mzn-stat: failures=6
%%%mzn-stat: propagations=890
%%%mzn-stat: nogoods=6
%%%mzn-stat: numAtomicConstraintsPropagated=0
%%%mzn-stat: circuitNumber1PropagationsTotal=74
%%%mzn-stat: circuitNumber1CircuitConflicts=4
%%%mzn-stat: circuitNumber1AlldiffConflicts=0
%%%mzn-stat: circuitNumber1TotalFixedEdgesAtConflict=67
%%%mzn-stat: circuitNumber1NumberOfConflicts=4
%%%mzn-stat: circuitNumber1GacPrunings=150
%%%mzn-stat: circuitNumber1PropagationsThatGacPruned=39
%%%mzn-stat: circuitNumber1TotalPruningHallSetSize=480
%%%mzn-stat: circuitNumber1NumberOfPruningExplanations=150
%%%mzn-stat: circuitNumber1MaxPruningHallSetSize=15
%%%mzn-stat: circuitNumber1TotalSccSizeAtPruning=249
%%%mzn-stat: circuitNumber1NumberOfSccPruningCalls=39
%%%mzn-stat: circuitNumber1TotalVarsInvolvedInPruning=121
%%%mzn-stat: circuitNumber1MaxValuesPrunedFromSingleVar=3
%%%mzn-stat: circuitNumber1HallCircuitChecks=70
%%%mzn-stat: circuitNumber1HallCircuitPrunings=3
%%%mzn-stat: circuitNumber1CircuitPreventPrunings=36
%%%mzn-stat: AverageConflictSize=11
%%%mzn-stat: NumUnitNogoodsLearned=0
%%%mzn-stat: AverageLearnedNogoodLength=9.833333333333334
%%%mzn-stat: AverageBacktrackAmount=0
%%%mzn-stat: AverageLbd=7
%%%mzn-stat: 2AutonomousSearchNumBackupCalled=135
%%%mzn-stat: 2AutonomousSearchNumPredicatesRemoved=0
%%%mzn-stat: 2AutonomousSearchNumCalls=137
%%%mzn-stat: 2AutonomousSearchNumPredicatesAdded=306
%%%mzn-stat: 2AutonomousSearchAverageSizeOfHeap=2.240875912408759
%%%mzn-stat: 2AutonomousSearchNumAssignedPredicatesEncountered=307
%%%mzn-stat-end
maxleg = 459;
succ = array1d(1..20,[3, 11, 4, 5, 15, 9, 1, 17, 10, 8, 7, 13, 19, 16, 12, 18, 20, 6, 14, 2]);
% time elapsed: 14.76 s
----------
==========
% time elapsed: 14.76 s
%%%mzn-stat: initTime=0.014627
%%%mzn-stat: objective=459
%%%mzn-stat: nodes=297
%%%mzn-stat: restarts=0
%%%mzn-stat: peakDepth=80
%%%mzn-stat: solveTime=0.027367962
%%%mzn-stat: variables=210
%%%mzn-stat: propagators=130
%%%mzn-stat: failures=143
%%%mzn-stat: propagations=5367
%%%mzn-stat: nogoods=143
%%%mzn-stat: numAtomicConstraintsPropagated=0
%%%mzn-stat: circuitNumber1PropagationsTotal=859
%%%mzn-stat: circuitNumber1CircuitConflicts=43
%%%mzn-stat: circuitNumber1AlldiffConflicts=14
%%%mzn-stat: circuitNumber1TotalFixedEdgesAtConflict=709
%%%mzn-stat: circuitNumber1NumberOfConflicts=57
%%%mzn-stat: circuitNumber1GacPrunings=2367
%%%mzn-stat: circuitNumber1PropagationsThatGacPruned=521
%%%mzn-stat: circuitNumber1TotalPruningHallSetSize=8368
%%%mzn-stat: circuitNumber1NumberOfPruningExplanations=2367
%%%mzn-stat: circuitNumber1MaxPruningHallSetSize=17
%%%mzn-stat: circuitNumber1TotalSccSizeAtPruning=4429
%%%mzn-stat: circuitNumber1NumberOfSccPruningCalls=521
%%%mzn-stat: circuitNumber1TotalVarsInvolvedInPruning=1695
%%%mzn-stat: circuitNumber1MaxValuesPrunedFromSingleVar=5
%%%mzn-stat: circuitNumber1HallCircuitChecks=1329
%%%mzn-stat: circuitNumber1HallCircuitPrunings=96
%%%mzn-stat: circuitNumber1CircuitPreventPrunings=476
%%%mzn-stat: AverageConflictSize=5.706293706293707
%%%mzn-stat: NumUnitNogoodsLearned=1
%%%mzn-stat: AverageLearnedNogoodLength=9.153846153846153
%%%mzn-stat: AverageBacktrackAmount=0
%%%mzn-stat: AverageLbd=4.489510489510489
%%%mzn-stat: 2AutonomousSearchNumBackupCalled=135
%%%mzn-stat: 2AutonomousSearchNumPredicatesRemoved=0
%%%mzn-stat: 2AutonomousSearchNumCalls=137
%%%mzn-stat: 2AutonomousSearchNumPredicatesAdded=885
%%%mzn-stat: 2AutonomousSearchAverageSizeOfHeap=2.240875912408759
%%%mzn-stat: 2AutonomousSearchNumAssignedPredicatesEncountered=307
%%%mzn-stat-end
